 &CONTROL 
    tstress = .true.,
    tprnfor = .true.,
    pseudo_dir = '../PSEUDOPOTENTIALS',
/
 &SYSTEM 
    ibrav = 0,
    nat = 1,
    ntyp = 1,
    ecutwfc = 50,
    smearing = 'mp',
    occupations = 'smearing',
    degauss = 0.02,
/
 &ELECTRONS 
/
 &IONS 
/
 &CELL 
/
ATOMIC_SPECIES
Ni 58.6934 Ni.pz-n-rrkjus_psl.1.0.0.UPF
ATOMIC_POSITIONS {Bohr}
Ni 0.00000000000000 0.00000000000000 0.00000000000000
CELL_PARAMETERS {Ang}
-3.32500000000000 0.00000000000000 3.32500000000000
0.00000000000000 3.32500000000000 3.32500000000000
-3.32500000000000 3.32500000000000 0.00000000000000
K_POINTS tpiba
512
-0.437500 -0.437500 -0.437500 1.0
-0.437500 -0.437500 -0.312500 1.0
-0.437500 -0.437500 -0.187500 1.0
-0.437500 -0.437500 -0.062500 1.0
-0.437500 -0.437500 0.062500 1.0
-0.437500 -0.437500 0.187500 1.0
-0.437500 -0.437500 0.312500 1.0
-0.437500 -0.437500 0.437500 1.0
-0.437500 -0.312500 -0.437500 1.0
-0.437500 -0.312500 -0.312500 1.0
-0.437500 -0.312500 -0.187500 1.0
-0.437500 -0.312500 -0.062500 1.0
-0.437500 -0.312500 0.062500 1.0
-0.437500 -0.312500 0.187500 1.0
-0.437500 -0.312500 0.312500 1.0
-0.437500 -0.312500 0.437500 1.0
-0.437500 -0.187500 -0.437500 1.0
-0.437500 -0.187500 -0.312500 1.0
-0.437500 -0.187500 -0.187500 1.0
-0.437500 -0.187500 -0.062500 1.0
-0.437500 -0.187500 0.062500 1.0
-0.437500 -0.187500 0.187500 1.0
-0.437500 -0.187500 0.312500 1.0
-0.437500 -0.187500 0.437500 1.0
-0.437500 -0.062500 -0.437500 1.0
-0.437500 -0.062500 -0.312500 1.0
-0.437500 -0.062500 -0.187500 1.0
-0.437500 -0.062500 -0.062500 1.0
-0.437500 -0.062500 0.062500 1.0
-0.437500 -0.062500 0.187500 1.0
-0.437500 -0.062500 0.312500 1.0
-0.437500 -0.062500 0.437500 1.0
-0.437500 0.062500 -0.437500 1.0
-0.437500 0.062500 -0.312500 1.0
-0.437500 0.062500 -0.187500 1.0
-0.437500 0.062500 -0.062500 1.0
-0.437500 0.062500 0.062500 1.0
-0.437500 0.062500 0.187500 1.0
-0.437500 0.062500 0.312500 1.0
-0.437500 0.062500 0.437500 1.0
-0.437500 0.187500 -0.437500 1.0
-0.437500 0.187500 -0.312500 1.0
-0.437500 0.187500 -0.187500 1.0
-0.437500 0.187500 -0.062500 1.0
-0.437500 0.187500 0.062500 1.0
-0.437500 0.187500 0.187500 1.0
-0.437500 0.187500 0.312500 1.0
-0.437500 0.187500 0.437500 1.0
-0.437500 0.312500 -0.437500 1.0
-0.437500 0.312500 -0.312500 1.0
-0.437500 0.312500 -0.187500 1.0
-0.437500 0.312500 -0.062500 1.0
-0.437500 0.312500 0.062500 1.0
-0.437500 0.312500 0.187500 1.0
-0.437500 0.312500 0.312500 1.0
-0.437500 0.312500 0.437500 1.0
-0.437500 0.437500 -0.437500 1.0
-0.437500 0.437500 -0.312500 1.0
-0.437500 0.437500 -0.187500 1.0
-0.437500 0.437500 -0.062500 1.0
-0.437500 0.437500 0.062500 1.0
-0.437500 0.437500 0.187500 1.0
-0.437500 0.437500 0.312500 1.0
-0.437500 0.437500 0.437500 1.0
-0.312500 -0.437500 -0.437500 1.0
-0.312500 -0.437500 -0.312500 1.0
-0.312500 -0.437500 -0.187500 1.0
-0.312500 -0.437500 -0.062500 1.0
-0.312500 -0.437500 0.062500 1.0
-0.312500 -0.437500 0.187500 1.0
-0.312500 -0.437500 0.312500 1.0
-0.312500 -0.437500 0.437500 1.0
-0.312500 -0.312500 -0.437500 1.0
-0.312500 -0.312500 -0.312500 1.0
-0.312500 -0.312500 -0.187500 1.0
-0.312500 -0.312500 -0.062500 1.0
-0.312500 -0.312500 0.062500 1.0
-0.312500 -0.312500 0.187500 1.0
-0.312500 -0.312500 0.312500 1.0
-0.312500 -0.312500 0.437500 1.0
-0.312500 -0.187500 -0.437500 1.0
-0.312500 -0.187500 -0.312500 1.0
-0.312500 -0.187500 -0.187500 1.0
-0.312500 -0.187500 -0.062500 1.0
-0.312500 -0.187500 0.062500 1.0
-0.312500 -0.187500 0.187500 1.0
-0.312500 -0.187500 0.312500 1.0
-0.312500 -0.187500 0.437500 1.0
-0.312500 -0.062500 -0.437500 1.0
-0.312500 -0.062500 -0.312500 1.0
-0.312500 -0.062500 -0.187500 1.0
-0.312500 -0.062500 -0.062500 1.0
-0.312500 -0.062500 0.062500 1.0
-0.312500 -0.062500 0.187500 1.0
-0.312500 -0.062500 0.312500 1.0
-0.312500 -0.062500 0.437500 1.0
-0.312500 0.062500 -0.437500 1.0
-0.312500 0.062500 -0.312500 1.0
-0.312500 0.062500 -0.187500 1.0
-0.312500 0.062500 -0.062500 1.0
-0.312500 0.062500 0.062500 1.0
-0.312500 0.062500 0.187500 1.0
-0.312500 0.062500 0.312500 1.0
-0.312500 0.062500 0.437500 1.0
-0.312500 0.187500 -0.437500 1.0
-0.312500 0.187500 -0.312500 1.0
-0.312500 0.187500 -0.187500 1.0
-0.312500 0.187500 -0.062500 1.0
-0.312500 0.187500 0.062500 1.0
-0.312500 0.187500 0.187500 1.0
-0.312500 0.187500 0.312500 1.0
-0.312500 0.187500 0.437500 1.0
-0.312500 0.312500 -0.437500 1.0
-0.312500 0.312500 -0.312500 1.0
-0.312500 0.312500 -0.187500 1.0
-0.312500 0.312500 -0.062500 1.0
-0.312500 0.312500 0.062500 1.0
-0.312500 0.312500 0.187500 1.0
-0.312500 0.312500 0.312500 1.0
-0.312500 0.312500 0.437500 1.0
-0.312500 0.437500 -0.437500 1.0
-0.312500 0.437500 -0.312500 1.0
-0.312500 0.437500 -0.187500 1.0
-0.312500 0.437500 -0.062500 1.0
-0.312500 0.437500 0.062500 1.0
-0.312500 0.437500 0.187500 1.0
-0.312500 0.437500 0.312500 1.0
-0.312500 0.437500 0.437500 1.0
-0.187500 -0.437500 -0.437500 1.0
-0.187500 -0.437500 -0.312500 1.0
-0.187500 -0.437500 -0.187500 1.0
-0.187500 -0.437500 -0.062500 1.0
-0.187500 -0.437500 0.062500 1.0
-0.187500 -0.437500 0.187500 1.0
-0.187500 -0.437500 0.312500 1.0
-0.187500 -0.437500 0.437500 1.0
-0.187500 -0.312500 -0.437500 1.0
-0.187500 -0.312500 -0.312500 1.0
-0.187500 -0.312500 -0.187500 1.0
-0.187500 -0.312500 -0.062500 1.0
-0.187500 -0.312500 0.062500 1.0
-0.187500 -0.312500 0.187500 1.0
-0.187500 -0.312500 0.312500 1.0
-0.187500 -0.312500 0.437500 1.0
-0.187500 -0.187500 -0.437500 1.0
-0.187500 -0.187500 -0.312500 1.0
-0.187500 -0.187500 -0.187500 1.0
-0.187500 -0.187500 -0.062500 1.0
-0.187500 -0.187500 0.062500 1.0
-0.187500 -0.187500 0.187500 1.0
-0.187500 -0.187500 0.312500 1.0
-0.187500 -0.187500 0.437500 1.0
-0.187500 -0.062500 -0.437500 1.0
-0.187500 -0.062500 -0.312500 1.0
-0.187500 -0.062500 -0.187500 1.0
-0.187500 -0.062500 -0.062500 1.0
-0.187500 -0.062500 0.062500 1.0
-0.187500 -0.062500 0.187500 1.0
-0.187500 -0.062500 0.312500 1.0
-0.187500 -0.062500 0.437500 1.0
-0.187500 0.062500 -0.437500 1.0
-0.187500 0.062500 -0.312500 1.0
-0.187500 0.062500 -0.187500 1.0
-0.187500 0.062500 -0.062500 1.0
-0.187500 0.062500 0.062500 1.0
-0.187500 0.062500 0.187500 1.0
-0.187500 0.062500 0.312500 1.0
-0.187500 0.062500 0.437500 1.0
-0.187500 0.187500 -0.437500 1.0
-0.187500 0.187500 -0.312500 1.0
-0.187500 0.187500 -0.187500 1.0
-0.187500 0.187500 -0.062500 1.0
-0.187500 0.187500 0.062500 1.0
-0.187500 0.187500 0.187500 1.0
-0.187500 0.187500 0.312500 1.0
-0.187500 0.187500 0.437500 1.0
-0.187500 0.312500 -0.437500 1.0
-0.187500 0.312500 -0.312500 1.0
-0.187500 0.312500 -0.187500 1.0
-0.187500 0.312500 -0.062500 1.0
-0.187500 0.312500 0.062500 1.0
-0.187500 0.312500 0.187500 1.0
-0.187500 0.312500 0.312500 1.0
-0.187500 0.312500 0.437500 1.0
-0.187500 0.437500 -0.437500 1.0
-0.187500 0.437500 -0.312500 1.0
-0.187500 0.437500 -0.187500 1.0
-0.187500 0.437500 -0.062500 1.0
-0.187500 0.437500 0.062500 1.0
-0.187500 0.437500 0.187500 1.0
-0.187500 0.437500 0.312500 1.0
-0.187500 0.437500 0.437500 1.0
-0.062500 -0.437500 -0.437500 1.0
-0.062500 -0.437500 -0.312500 1.0
-0.062500 -0.437500 -0.187500 1.0
-0.062500 -0.437500 -0.062500 1.0
-0.062500 -0.437500 0.062500 1.0
-0.062500 -0.437500 0.187500 1.0
-0.062500 -0.437500 0.312500 1.0
-0.062500 -0.437500 0.437500 1.0
-0.062500 -0.312500 -0.437500 1.0
-0.062500 -0.312500 -0.312500 1.0
-0.062500 -0.312500 -0.187500 1.0
-0.062500 -0.312500 -0.062500 1.0
-0.062500 -0.312500 0.062500 1.0
-0.062500 -0.312500 0.187500 1.0
-0.062500 -0.312500 0.312500 1.0
-0.062500 -0.312500 0.437500 1.0
-0.062500 -0.187500 -0.437500 1.0
-0.062500 -0.187500 -0.312500 1.0
-0.062500 -0.187500 -0.187500 1.0
-0.062500 -0.187500 -0.062500 1.0
-0.062500 -0.187500 0.062500 1.0
-0.062500 -0.187500 0.187500 1.0
-0.062500 -0.187500 0.312500 1.0
-0.062500 -0.187500 0.437500 1.0
-0.062500 -0.062500 -0.437500 1.0
-0.062500 -0.062500 -0.312500 1.0
-0.062500 -0.062500 -0.187500 1.0
-0.062500 -0.062500 -0.062500 1.0
-0.062500 -0.062500 0.062500 1.0
-0.062500 -0.062500 0.187500 1.0
-0.062500 -0.062500 0.312500 1.0
-0.062500 -0.062500 0.437500 1.0
-0.062500 0.062500 -0.437500 1.0
-0.062500 0.062500 -0.312500 1.0
-0.062500 0.062500 -0.187500 1.0
-0.062500 0.062500 -0.062500 1.0
-0.062500 0.062500 0.062500 1.0
-0.062500 0.062500 0.187500 1.0
-0.062500 0.062500 0.312500 1.0
-0.062500 0.062500 0.437500 1.0
-0.062500 0.187500 -0.437500 1.0
-0.062500 0.187500 -0.312500 1.0
-0.062500 0.187500 -0.187500 1.0
-0.062500 0.187500 -0.062500 1.0
-0.062500 0.187500 0.062500 1.0
-0.062500 0.187500 0.187500 1.0
-0.062500 0.187500 0.312500 1.0
-0.062500 0.187500 0.437500 1.0
-0.062500 0.312500 -0.437500 1.0
-0.062500 0.312500 -0.312500 1.0
-0.062500 0.312500 -0.187500 1.0
-0.062500 0.312500 -0.062500 1.0
-0.062500 0.312500 0.062500 1.0
-0.062500 0.312500 0.187500 1.0
-0.062500 0.312500 0.312500 1.0
-0.062500 0.312500 0.437500 1.0
-0.062500 0.437500 -0.437500 1.0
-0.062500 0.437500 -0.312500 1.0
-0.062500 0.437500 -0.187500 1.0
-0.062500 0.437500 -0.062500 1.0
-0.062500 0.437500 0.062500 1.0
-0.062500 0.437500 0.187500 1.0
-0.062500 0.437500 0.312500 1.0
-0.062500 0.437500 0.437500 1.0
0.062500 -0.437500 -0.437500 1.0
0.062500 -0.437500 -0.312500 1.0
0.062500 -0.437500 -0.187500 1.0
0.062500 -0.437500 -0.062500 1.0
0.062500 -0.437500 0.062500 1.0
0.062500 -0.437500 0.187500 1.0
0.062500 -0.437500 0.312500 1.0
0.062500 -0.437500 0.437500 1.0
0.062500 -0.312500 -0.437500 1.0
0.062500 -0.312500 -0.312500 1.0
0.062500 -0.312500 -0.187500 1.0
0.062500 -0.312500 -0.062500 1.0
0.062500 -0.312500 0.062500 1.0
0.062500 -0.312500 0.187500 1.0
0.062500 -0.312500 0.312500 1.0
0.062500 -0.312500 0.437500 1.0
0.062500 -0.187500 -0.437500 1.0
0.062500 -0.187500 -0.312500 1.0
0.062500 -0.187500 -0.187500 1.0
0.062500 -0.187500 -0.062500 1.0
0.062500 -0.187500 0.062500 1.0
0.062500 -0.187500 0.187500 1.0
0.062500 -0.187500 0.312500 1.0
0.062500 -0.187500 0.437500 1.0
0.062500 -0.062500 -0.437500 1.0
0.062500 -0.062500 -0.312500 1.0
0.062500 -0.062500 -0.187500 1.0
0.062500 -0.062500 -0.062500 1.0
0.062500 -0.062500 0.062500 1.0
0.062500 -0.062500 0.187500 1.0
0.062500 -0.062500 0.312500 1.0
0.062500 -0.062500 0.437500 1.0
0.062500 0.062500 -0.437500 1.0
0.062500 0.062500 -0.312500 1.0
0.062500 0.062500 -0.187500 1.0
0.062500 0.062500 -0.062500 1.0
0.062500 0.062500 0.062500 1.0
0.062500 0.062500 0.187500 1.0
0.062500 0.062500 0.312500 1.0
0.062500 0.062500 0.437500 1.0
0.062500 0.187500 -0.437500 1.0
0.062500 0.187500 -0.312500 1.0
0.062500 0.187500 -0.187500 1.0
0.062500 0.187500 -0.062500 1.0
0.062500 0.187500 0.062500 1.0
0.062500 0.187500 0.187500 1.0
0.062500 0.187500 0.312500 1.0
0.062500 0.187500 0.437500 1.0
0.062500 0.312500 -0.437500 1.0
0.062500 0.312500 -0.312500 1.0
0.062500 0.312500 -0.187500 1.0
0.062500 0.312500 -0.062500 1.0
0.062500 0.312500 0.062500 1.0
0.062500 0.312500 0.187500 1.0
0.062500 0.312500 0.312500 1.0
0.062500 0.312500 0.437500 1.0
0.062500 0.437500 -0.437500 1.0
0.062500 0.437500 -0.312500 1.0
0.062500 0.437500 -0.187500 1.0
0.062500 0.437500 -0.062500 1.0
0.062500 0.437500 0.062500 1.0
0.062500 0.437500 0.187500 1.0
0.062500 0.437500 0.312500 1.0
0.062500 0.437500 0.437500 1.0
0.187500 -0.437500 -0.437500 1.0
0.187500 -0.437500 -0.312500 1.0
0.187500 -0.437500 -0.187500 1.0
0.187500 -0.437500 -0.062500 1.0
0.187500 -0.437500 0.062500 1.0
0.187500 -0.437500 0.187500 1.0
0.187500 -0.437500 0.312500 1.0
0.187500 -0.437500 0.437500 1.0
0.187500 -0.312500 -0.437500 1.0
0.187500 -0.312500 -0.312500 1.0
0.187500 -0.312500 -0.187500 1.0
0.187500 -0.312500 -0.062500 1.0
0.187500 -0.312500 0.062500 1.0
0.187500 -0.312500 0.187500 1.0
0.187500 -0.312500 0.312500 1.0
0.187500 -0.312500 0.437500 1.0
0.187500 -0.187500 -0.437500 1.0
0.187500 -0.187500 -0.312500 1.0
0.187500 -0.187500 -0.187500 1.0
0.187500 -0.187500 -0.062500 1.0
0.187500 -0.187500 0.062500 1.0
0.187500 -0.187500 0.187500 1.0
0.187500 -0.187500 0.312500 1.0
0.187500 -0.187500 0.437500 1.0
0.187500 -0.062500 -0.437500 1.0
0.187500 -0.062500 -0.312500 1.0
0.187500 -0.062500 -0.187500 1.0
0.187500 -0.062500 -0.062500 1.0
0.187500 -0.062500 0.062500 1.0
0.187500 -0.062500 0.187500 1.0
0.187500 -0.062500 0.312500 1.0
0.187500 -0.062500 0.437500 1.0
0.187500 0.062500 -0.437500 1.0
0.187500 0.062500 -0.312500 1.0
0.187500 0.062500 -0.187500 1.0
0.187500 0.062500 -0.062500 1.0
0.187500 0.062500 0.062500 1.0
0.187500 0.062500 0.187500 1.0
0.187500 0.062500 0.312500 1.0
0.187500 0.062500 0.437500 1.0
0.187500 0.187500 -0.437500 1.0
0.187500 0.187500 -0.312500 1.0
0.187500 0.187500 -0.187500 1.0
0.187500 0.187500 -0.062500 1.0
0.187500 0.187500 0.062500 1.0
0.187500 0.187500 0.187500 1.0
0.187500 0.187500 0.312500 1.0
0.187500 0.187500 0.437500 1.0
0.187500 0.312500 -0.437500 1.0
0.187500 0.312500 -0.312500 1.0
0.187500 0.312500 -0.187500 1.0
0.187500 0.312500 -0.062500 1.0
0.187500 0.312500 0.062500 1.0
0.187500 0.312500 0.187500 1.0
0.187500 0.312500 0.312500 1.0
0.187500 0.312500 0.437500 1.0
0.187500 0.437500 -0.437500 1.0
0.187500 0.437500 -0.312500 1.0
0.187500 0.437500 -0.187500 1.0
0.187500 0.437500 -0.062500 1.0
0.187500 0.437500 0.062500 1.0
0.187500 0.437500 0.187500 1.0
0.187500 0.437500 0.312500 1.0
0.187500 0.437500 0.437500 1.0
0.312500 -0.437500 -0.437500 1.0
0.312500 -0.437500 -0.312500 1.0
0.312500 -0.437500 -0.187500 1.0
0.312500 -0.437500 -0.062500 1.0
0.312500 -0.437500 0.062500 1.0
0.312500 -0.437500 0.187500 1.0
0.312500 -0.437500 0.312500 1.0
0.312500 -0.437500 0.437500 1.0
0.312500 -0.312500 -0.437500 1.0
0.312500 -0.312500 -0.312500 1.0
0.312500 -0.312500 -0.187500 1.0
0.312500 -0.312500 -0.062500 1.0
0.312500 -0.312500 0.062500 1.0
0.312500 -0.312500 0.187500 1.0
0.312500 -0.312500 0.312500 1.0
0.312500 -0.312500 0.437500 1.0
0.312500 -0.187500 -0.437500 1.0
0.312500 -0.187500 -0.312500 1.0
0.312500 -0.187500 -0.187500 1.0
0.312500 -0.187500 -0.062500 1.0
0.312500 -0.187500 0.062500 1.0
0.312500 -0.187500 0.187500 1.0
0.312500 -0.187500 0.312500 1.0
0.312500 -0.187500 0.437500 1.0
0.312500 -0.062500 -0.437500 1.0
0.312500 -0.062500 -0.312500 1.0
0.312500 -0.062500 -0.187500 1.0
0.312500 -0.062500 -0.062500 1.0
0.312500 -0.062500 0.062500 1.0
0.312500 -0.062500 0.187500 1.0
0.312500 -0.062500 0.312500 1.0
0.312500 -0.062500 0.437500 1.0
0.312500 0.062500 -0.437500 1.0
0.312500 0.062500 -0.312500 1.0
0.312500 0.062500 -0.187500 1.0
0.312500 0.062500 -0.062500 1.0
0.312500 0.062500 0.062500 1.0
0.312500 0.062500 0.187500 1.0
0.312500 0.062500 0.312500 1.0
0.312500 0.062500 0.437500 1.0
0.312500 0.187500 -0.437500 1.0
0.312500 0.187500 -0.312500 1.0
0.312500 0.187500 -0.187500 1.0
0.312500 0.187500 -0.062500 1.0
0.312500 0.187500 0.062500 1.0
0.312500 0.187500 0.187500 1.0
0.312500 0.187500 0.312500 1.0
0.312500 0.187500 0.437500 1.0
0.312500 0.312500 -0.437500 1.0
0.312500 0.312500 -0.312500 1.0
0.312500 0.312500 -0.187500 1.0
0.312500 0.312500 -0.062500 1.0
0.312500 0.312500 0.062500 1.0
0.312500 0.312500 0.187500 1.0
0.312500 0.312500 0.312500 1.0
0.312500 0.312500 0.437500 1.0
0.312500 0.437500 -0.437500 1.0
0.312500 0.437500 -0.312500 1.0
0.312500 0.437500 -0.187500 1.0
0.312500 0.437500 -0.062500 1.0
0.312500 0.437500 0.062500 1.0
0.312500 0.437500 0.187500 1.0
0.312500 0.437500 0.312500 1.0
0.312500 0.437500 0.437500 1.0
0.437500 -0.437500 -0.437500 1.0
0.437500 -0.437500 -0.312500 1.0
0.437500 -0.437500 -0.187500 1.0
0.437500 -0.437500 -0.062500 1.0
0.437500 -0.437500 0.062500 1.0
0.437500 -0.437500 0.187500 1.0
0.437500 -0.437500 0.312500 1.0
0.437500 -0.437500 0.437500 1.0
0.437500 -0.312500 -0.437500 1.0
0.437500 -0.312500 -0.312500 1.0
0.437500 -0.312500 -0.187500 1.0
0.437500 -0.312500 -0.062500 1.0
0.437500 -0.312500 0.062500 1.0
0.437500 -0.312500 0.187500 1.0
0.437500 -0.312500 0.312500 1.0
0.437500 -0.312500 0.437500 1.0
0.437500 -0.187500 -0.437500 1.0
0.437500 -0.187500 -0.312500 1.0
0.437500 -0.187500 -0.187500 1.0
0.437500 -0.187500 -0.062500 1.0
0.437500 -0.187500 0.062500 1.0
0.437500 -0.187500 0.187500 1.0
0.437500 -0.187500 0.312500 1.0
0.437500 -0.187500 0.437500 1.0
0.437500 -0.062500 -0.437500 1.0
0.437500 -0.062500 -0.312500 1.0
0.437500 -0.062500 -0.187500 1.0
0.437500 -0.062500 -0.062500 1.0
0.437500 -0.062500 0.062500 1.0
0.437500 -0.062500 0.187500 1.0
0.437500 -0.062500 0.312500 1.0
0.437500 -0.062500 0.437500 1.0
0.437500 0.062500 -0.437500 1.0
0.437500 0.062500 -0.312500 1.0
0.437500 0.062500 -0.187500 1.0
0.437500 0.062500 -0.062500 1.0
0.437500 0.062500 0.062500 1.0
0.437500 0.062500 0.187500 1.0
0.437500 0.062500 0.312500 1.0
0.437500 0.062500 0.437500 1.0
0.437500 0.187500 -0.437500 1.0
0.437500 0.187500 -0.312500 1.0
0.437500 0.187500 -0.187500 1.0
0.437500 0.187500 -0.062500 1.0
0.437500 0.187500 0.062500 1.0
0.437500 0.187500 0.187500 1.0
0.437500 0.187500 0.312500 1.0
0.437500 0.187500 0.437500 1.0
0.437500 0.312500 -0.437500 1.0
0.437500 0.312500 -0.312500 1.0
0.437500 0.312500 -0.187500 1.0
0.437500 0.312500 -0.062500 1.0
0.437500 0.312500 0.062500 1.0
0.437500 0.312500 0.187500 1.0
0.437500 0.312500 0.312500 1.0
0.437500 0.312500 0.437500 1.0
0.437500 0.437500 -0.437500 1.0
0.437500 0.437500 -0.312500 1.0
0.437500 0.437500 -0.187500 1.0
0.437500 0.437500 -0.062500 1.0
0.437500 0.437500 0.062500 1.0
0.437500 0.437500 0.187500 1.0
0.437500 0.437500 0.312500 1.0
0.437500 0.437500 0.437500 1.0
