 &inputpp
   plot_num=1,
   prefix='Ni',
   outdir='./tmp/'
   filplot='ppout1',
/
