 &inputpp
   plot_num=0,
   prefix='Ni',
   outdir='./tmp/'
   filplot='ppout0',
/
