 &inputpp
   plot_num=6,
   prefix='Si',
   outdir='./tmp/'
   filplot='ppout6',
/
