 &inputpp
   plot_num=6,
   prefix='Ni',
   outdir='./tmp/'
   filplot='ppout6',
/
