 &inputpp
   plot_num=2,
   prefix='Ni',
   outdir='./tmp/'
   filplot='ppout2',
/
