 &inputpp
   plot_num=11,
   prefix='Si',
   outdir='./tmp/'
   filplot='ppout11',
/
